p cnf 148 44
-14 -40 0
40 14 0
-40 -14 0
-92 -118 0
-92 -144 0
118 144 92 0
-118 -144 0
-118 -92 0
144 118 92 0
-144 -118 0
-144 -92 0
42 66 0
-18 -20 0
-18 -22 0
-18 -24 0
-122 -148 0
148 122 0
-148 -122 0
20 22 24 18 0
20 44 0
-20 -46 0
-20 -22 0
-20 -24 0
-20 -18 0
46 20 0
-46 -20 0
22 24 20 18 0
-22 -24 0
-22 -20 0
-22 -18 0
-100 -126 0
-100 -102 0
126 100 0
-126 -100 0
24 22 20 18 0
102 100 0
128 152 0
-24 -22 0
-24 -20 0
-24 -18 0
-76 -102 0
102 76 0
-102 -76 0
-102 -100 0
